decision_x1=[0,2];
decision_x2=[0,2];
decision_x3=[0,2];
decision_x4=[0,2];
decision_x5=[0,2];
decision_x6=[0,2];
decision_x7=[0,2];
decision_x8=[0,2];
decision_x9=[0,2];
decision_x10=[0,2];
decision_x11=[0,2];
decision_x12=[0,2];
decision_x13=[0,2];
decision_x14=[0,2];
decision_x15=[0,2];
random_y1=[0,2];
random_y2=[0,2];
random_y3=[0,2];
constraint_x2_x1=[
0,0,5.6|
0,1,6.8|
0,2,9.1|
1,0,7.3|
1,1,5.6|
1,2,5.7|
2,0,2|
2,1,1.8|
2,2,7|
];
constraint_x3_x2=[
0,0,3.6|
0,1,1.6|
0,2,5.3|
1,0,5.2|
1,1,9.3|
1,2,4.1|
2,0,1.9|
2,1,8.1|
2,2,7.6|
];
constraint_x5_x1=[
0,0,7|
0,1,7.4|
0,2,0.32|
1,0,7.1|
1,1,6.5|
1,2,2.4|
2,0,3.1|
2,1,0.54|
2,2,4.6|
];
constraint_x5_x3=[
0,0,6.8|
0,1,0.64|
0,2,8.1|
1,0,6.7|
1,1,5.8|
1,2,8.1|
2,0,9.5|
2,1,8.2|
2,2,8.3|
];
constraint_x5_x4=[
0,0,6.8|
0,1,7.1|
0,2,6.3|
1,0,0.095|
1,1,2.7|
1,2,9.4|
2,0,5|
2,1,0.36|
2,2,3.9|
];
constraint_x6_x3=[
0,0,9.6|
0,1,1.9|
0,2,7.5|
1,0,3.2|
1,1,9.4|
1,2,2.7|
2,0,8.2|
2,1,4.3|
2,2,9.3|
];
constraint_x6_x4=[
0,0,1.2|
0,1,0.89|
0,2,10|
1,0,3|
1,1,3.6|
1,2,4.7|
2,0,0.66|
2,1,6.7|
2,2,1.7|
];
constraint_x7_x2=[
0,0,0.62|
0,1,5.6|
0,2,4.7|
1,0,5.2|
1,1,5.2|
1,2,6.8|
2,0,8.1|
2,1,9.4|
2,2,9.8|
];
constraint_x7_x3=[
0,0,4.1|
0,1,0.9|
0,2,4.8|
1,0,5.7|
1,1,4.1|
1,2,7.2|
2,0,3|
2,1,7.6|
2,2,0.27|
];
constraint_x7_x6=[
0,0,9|
0,1,9.6|
0,2,0.12|
1,0,4.6|
1,1,1.2|
1,2,6.4|
2,0,1.7|
2,1,5.4|
2,2,5.6|
];
constraint_x8_x1=[
0,0,2.7|
0,1,4.3|
0,2,5.7|
1,0,3.8|
1,1,1.2|
1,2,9.1|
2,0,8.6|
2,1,8.1|
2,2,3.8|
];
constraint_x8_x2=[
0,0,8.2|
0,1,3.8|
0,2,0.078|
1,0,4.3|
1,1,4.1|
1,2,9.8|
2,0,8.1|
2,1,6.2|
2,2,5.9|
];
constraint_x8_x4=[
0,0,5.3|
0,1,8.8|
0,2,6.2|
1,0,2.4|
1,1,0.83|
1,2,2.5|
2,0,6.8|
2,1,4.4|
2,2,1.1|
];
constraint_x9_x1=[
0,0,7.7|
0,1,3.2|
0,2,6|
1,0,8.7|
1,1,2.5|
1,2,3.6|
2,0,3.5|
2,1,5.1|
2,2,9.7|
];
constraint_x9_x2=[
0,0,4.5|
0,1,8.2|
0,2,8|
1,0,6.4|
1,1,7.3|
1,2,8.5|
2,0,1.5|
2,1,2.8|
2,2,0.016|
];
constraint_x9_x3=[
0,0,9.3|
0,1,7.2|
0,2,3.3|
1,0,0.79|
1,1,4.3|
1,2,1.4|
2,0,8.6|
2,1,8.7|
2,2,3|
];
constraint_x9_x6=[
0,0,9.8|
0,1,0.28|
0,2,3|
1,0,8.2|
1,1,6.7|
1,2,6.1|
2,0,0.58|
2,1,3|
2,2,1.4|
];
constraint_x10_x2=[
0,0,3.8|
0,1,8.4|
0,2,8.7|
1,0,5.8|
1,1,5|
1,2,8|
2,0,4.5|
2,1,1.6|
2,2,5.4|
];
constraint_x10_x4=[
0,0,6.8|
0,1,3.1|
0,2,9.9|
1,0,7.1|
1,1,9.3|
1,2,9.1|
2,0,7.7|
2,1,2.3|
2,2,4.5|
];
constraint_x10_x6=[
0,0,2|
0,1,6.7|
0,2,2.4|
1,0,0.0076|
1,1,0.3|
1,2,7.7|
2,0,4.4|
2,1,8.7|
2,2,2|
];
constraint_x10_x7=[
0,0,0.17|
0,1,4.3|
0,2,6.9|
1,0,6.7|
1,1,3.3|
1,2,9.9|
2,0,0.28|
2,1,0.22|
2,2,3.4|
];
constraint_x11_x2=[
0,0,2.6|
0,1,3.7|
0,2,6|
1,0,0.56|
1,1,2.2|
1,2,9.7|
2,0,8.8|
2,1,3.6|
2,2,4.7|
];
constraint_x11_x5=[
0,0,0.5|
0,1,5.9|
0,2,8.9|
1,0,5.8|
1,1,6.6|
1,2,7.5|
2,0,5.6|
2,1,3.1|
2,2,9.3|
];
constraint_x11_x7=[
0,0,2.3|
0,1,7.5|
0,2,9.3|
1,0,8|
1,1,8.3|
1,2,5.6|
2,0,9|
2,1,6.5|
2,2,0.39|
];
constraint_x11_x8=[
0,0,5.6|
0,1,4.1|
0,2,5.7|
1,0,5.2|
1,1,2.7|
1,2,4.8|
2,0,5.7|
2,1,6.2|
2,2,3.1|
];
constraint_x11_x9=[
0,0,5.3|
0,1,0.042|
0,2,4.6|
1,0,5.2|
1,1,5.6|
1,2,1.7|
2,0,3.5|
2,1,4.8|
2,2,5.4|
];
constraint_x11_x10=[
0,0,7.5|
0,1,9.5|
0,2,1|
1,0,5.3|
1,1,6.3|
1,2,8.8|
2,0,2.5|
2,1,6|
2,2,6.9|
];
constraint_x12_x1=[
0,0,7.3|
0,1,6|
0,2,4.4|
1,0,2.6|
1,1,8.8|
1,2,5|
2,0,1|
2,1,7.2|
2,2,6.7|
];
constraint_x12_x4=[
0,0,7.3|
0,1,4.5|
0,2,5.2|
1,0,7.2|
1,1,8.9|
1,2,5.7|
2,0,4.9|
2,1,7.1|
2,2,1.5|
];
constraint_x12_x5=[
0,0,3.2|
0,1,1.8|
0,2,8.1|
1,0,4.6|
1,1,0.097|
1,2,7.1|
2,0,8.7|
2,1,0.73|
2,2,2.5|
];
constraint_x12_x8=[
0,0,4.2|
0,1,0.075|
0,2,8.6|
1,0,4.8|
1,1,5.2|
1,2,7.1|
2,0,9.3|
2,1,7.1|
2,2,9.3|
];
constraint_x12_x11=[
0,0,7.5|
0,1,7.1|
0,2,0.57|
1,0,9.6|
1,1,0.3|
1,2,8.4|
2,0,8|
2,1,7|
2,2,6.7|
];
constraint_x13_x2=[
0,0,1.2|
0,1,3.6|
0,2,0.59|
1,0,1.8|
1,1,3.8|
1,2,1.5|
2,0,9.6|
2,1,7.4|
2,2,2.1|
];
constraint_x13_x3=[
0,0,4.9|
0,1,6|
0,2,0.7|
1,0,2.4|
1,1,6.3|
1,2,6.3|
2,0,8.8|
2,1,9|
2,2,2.6|
];
constraint_x13_x8=[
0,0,6|
0,1,3.9|
0,2,7.5|
1,0,9.1|
1,1,2.9|
1,2,3.1|
2,0,8.6|
2,1,3.2|
2,2,4.8|
];
constraint_x13_x9=[
0,0,2.7|
0,1,6.2|
0,2,4.3|
1,0,7.1|
1,1,1.7|
1,2,9.6|
2,0,2.6|
2,1,4.9|
2,2,2.2|
];
constraint_x13_x12=[
0,0,4.1|
0,1,2.2|
0,2,6.4|
1,0,0.1|
1,1,2.2|
1,2,2.6|
2,0,9.3|
2,1,4|
2,2,6.6|
];
constraint_x14_x2=[
0,0,8.4|
0,1,7.4|
0,2,5.7|
1,0,9.2|
1,1,2.6|
1,2,3.4|
2,0,8.3|
2,1,1.1|
2,2,7.3|
];
constraint_x14_x3=[
0,0,1.6|
0,1,2.6|
0,2,9.1|
1,0,1.3|
1,1,5.3|
1,2,6.5|
2,0,1.1|
2,1,2.1|
2,2,0.75|
];
constraint_x14_x4=[
0,0,3.3|
0,1,7.4|
0,2,3.7|
1,0,7.6|
1,1,2.9|
1,2,1.4|
2,0,7.5|
2,1,0.25|
2,2,4.7|
];
constraint_x14_x5=[
0,0,8.5|
0,1,9.9|
0,2,4.4|
1,0,0.53|
1,1,2.1|
1,2,4.5|
2,0,2.2|
2,1,8.6|
2,2,0.0078|
];
constraint_x14_x6=[
0,0,7.2|
0,1,1.3|
0,2,5.6|
1,0,2.7|
1,1,7.3|
1,2,9|
2,0,9.2|
2,1,7.5|
2,2,2.7|
];
constraint_x14_x8=[
0,0,8.2|
0,1,4.8|
0,2,9.4|
1,0,7.6|
1,1,9.3|
1,2,1.6|
2,0,8|
2,1,6.6|
2,2,8.4|
];
constraint_x14_x12=[
0,0,9.4|
0,1,0.65|
0,2,6.3|
1,0,2.8|
1,1,8.1|
1,2,5.4|
2,0,4.3|
2,1,0.5|
2,2,4.4|
];
constraint_x14_x13=[
0,0,6.2|
0,1,8.2|
0,2,7.2|
1,0,6.6|
1,1,2.5|
1,2,8.6|
2,0,0.2|
2,1,4.4|
2,2,3.3|
];
constraint_x15_x1=[
0,0,8.6|
0,1,9.5|
0,2,8.1|
1,0,7.5|
1,1,6.5|
1,2,2.9|
2,0,4.4|
2,1,3|
2,2,4.1|
];
constraint_x15_x2=[
0,0,3.6|
0,1,4.2|
0,2,9.5|
1,0,2|
1,1,8.4|
1,2,1.9|
2,0,7.6|
2,1,6|
2,2,0.84|
];
constraint_x15_x3=[
0,0,0.87|
0,1,5.3|
0,2,6.3|
1,0,9.2|
1,1,3.6|
1,2,7.9|
2,0,1.4|
2,1,7.8|
2,2,7.7|
];
constraint_x15_x5=[
0,0,4.3|
0,1,8.5|
0,2,5.7|
1,0,3.1|
1,1,4.5|
1,2,2.3|
2,0,2.5|
2,1,8|
2,2,3.8|
];
constraint_x15_x8=[
0,0,9.9|
0,1,9.9|
0,2,0.099|
1,0,6.1|
1,1,9.2|
1,2,3|
2,0,8.3|
2,1,9.2|
2,2,8.6|
];
constraint_x15_x10=[
0,0,4.2|
0,1,4.9|
0,2,2.8|
1,0,9.6|
1,1,5.9|
1,2,9|
2,0,6.3|
2,1,2.1|
2,2,5|
];
constraint_x15_x11=[
0,0,3.8|
0,1,8.6|
0,2,7.9|
1,0,2.8|
1,1,6.8|
1,2,0.84|
2,0,3.8|
2,1,6.9|
2,2,4.3|
];
constraint_x15_x12=[
0,0,9.9|
0,1,9.5|
0,2,0.11|
1,0,2|
1,1,5.8|
1,2,8.8|
2,0,0.092|
2,1,6.6|
2,2,5.7|
];
constraint_x1_y1=[
0,0,8.4|
0,1,5.4|
0,2,7.1|
1,0,9|
1,1,9.3|
1,2,5.2|
2,0,2.4|
2,1,6.3|
2,2,5.6|
];
constraint_x2_y2=[
0,0,5.3|
0,1,6.4|
0,2,3.7|
1,0,8.4|
1,1,4.5|
1,2,9.8|
2,0,8.4|
2,1,2.8|
2,2,6|
];
constraint_x3_y3=[
0,0,2|
0,1,5.2|
0,2,9.7|
1,0,8.2|
1,1,5.2|
1,2,8.5|
2,0,3.9|
2,1,5.8|
2,2,5.3|
];
initial_distribution_y1=[0.36,0.25,0.38];
initial_distribution_y2=[0.18,0.69,0.12];
initial_distribution_y3=[0.81,0.16,0.029];
transition_y1=[
0.29,0.39,0.32|
0.26,0.46,0.28|
0.13,0.35,0.53|
];
transition_y2=[
0.45,0.092,0.45|
0.17,0.41,0.42|
0.16,0.62,0.21|
];
transition_y3=[
0.44,0.2,0.36|
0.55,0.087,0.36|
0.27,0.17,0.57|
];
